89
150
120	7
119	8
118	5
117	2
116	3
115	6
114	6
113	6
112	11
111	6
110	7
109	4
108	4
106	6
105	4
104	7
103	6
102	4
101	5
100	2
99	6
98	3
97	5
96	4
95	5
94	4
93	4
92	5
91	7
90	4
89	6
88	5
87	8
86	5
85	6
84	2
83	12
82	6
81	5
80	3
79	3
78	11
77	5
76	4
75	7
74	6
72	8
71	3
70	5
69	6
68	11
67	3
66	8
65	6
64	8
63	7
62	7
61	11
60	9
59	2
58	4
57	9
56	3
55	7
54	6
53	7
52	6
51	10
50	4
49	5
48	7
47	2
46	4
45	5
44	5
43	3
42	8
41	2
40	2
39	12
38	3
37	6
36	5
35	5
34	4
33	5
32	7
31	4
30	6
